c2_2_1

VEHICLE
NUMBER      CAPACITY
5             50

CUSTOMER
CUST NO.      XCOORD.      YCOORD.      DEMAND      READY TIME      DUE DATE      SERVICE TIME

0             -6.1736844   106.891857   0           32400           82800         0
1             -6.1658039   106.5579159  21          32400           82800         105
2             -6.3345655   106.8568734  20          32400           82800         100
3             -6.1708554   106.5916788  12          32400           82800         60
4             -6.1820393   106.9498218  20          32400           82800         100
5             -6.5949893   106.7840071  21          32400           82800         105
6             -6.2291229   106.8826877  21          32400           82800         105
7             -6.2536537   106.7828592  24          32400           82800         120
8             -6.2505428   106.8493667  35          32400           82800         175
9             -6.1820762   106.9499977  14          32400           82800         70
10            -6.5884011   106.7664196  38          32400           82800         190

